[VALIDATOR STDOUT]
Checking plan: /home/jfan5/Safety-gen/runs/benchmark/optic/delivery_20260205_114717/delivery/optic_results/delivery_size41_packages1_seed41001.plan
Plan executed successfully - checking goal
Plan valid
Final value: 283 

Successful plans:
Value: 283
 /home/jfan5/Safety-gen/runs/benchmark/optic/delivery_20260205_114717/delivery/optic_results/delivery_size41_packages1_seed41001.plan 283
